%%% static parameters %%%
timespan = 1;
Clients_N = [500];
Demand_W = [15];
Lt0 = [4];
Lt1 = [4];
SS_ = [0.85];
DS_D = [20];
K = [200];
MA = [500];
HC = [0.05];
%%% dynamic parameters %%%
lost_ratio_sales_ret_th = 0.00023079152288680882;
lost_ratio_sales_ret_w = 66;
lost_ratio_sales_dis_th = 0.0007041288804997683;
lost_ratio_sales_dis_w = 88;
lost_ratio_sales_fac_th = 0.0009644569383682084;
lost_ratio_sales_fac_w = 98;
stock_customer_MA_mean_relative_th = 0.4704110694095375;
stock_customer_MA_mean_relative_w = 60;
stock_distributor_MA_mean_relative_th = 0.7940587931650043;
stock_distributor_MA_mean_relative_w = 34;
stock_retailer_MA_mean_relative_th = 0.7717961626497739;
stock_retailer_MA_mean_relative_w = 17;
stock_factory_MA_mean_relative_th = 0.13692422362471657;
stock_factory_MA_mean_relative_w = 17;
